c ren 1 -> 1
c ren 2 -> 2
c ren 3 -> 3
c ren 4 -> 4
c ren 5 -> 5
c ren 6 -> 6
c ren 7 -> 7
c ren 8 -> 8
c ren 9 -> 9
c ren 10 -> 10
c ren 11 -> 11
c ren 12 -> 12
c ren 13 -> 13
c ren 14 -> 14
c ren 15 -> 15
c ren 16 -> 16
c ren 17 -> 17
c ren 18 -> 18
c ren 19 -> 19
c ren 20 -> 20
c ren 21 -> 21
c ren 22 -> 22
c ren 23 -> 23
c ren 24 -> 24
c ren 25 -> 25
c ren 26 -> 26
c ren 27 -> 27
c ren 28 -> 28
c ren 29 -> 29
c ren 30 -> 30
c ren 31 -> 31
c ren 32 -> 32
c ren 33 -> 33
c ren 34 -> 34
c ren 35 -> 35
c ren 36 -> 36
c ren 37 -> 37
c ren 38 -> 38
c ren 39 -> 39
c ren 40 -> 40
c ren 41 -> 41
c ren 42 -> 42
c ren 43 -> 43
c ren 44 -> 44
c ren 45 -> 45
c ren 46 -> 46
c ren 47 -> 47
c ren 48 -> 48
c ren 49 -> 49
c ren 50 -> 50
c ren 65 -> 51
c ren 72 -> 52
c ren 75 -> 53
c ren 76 -> 54
c ren 77 -> 55
c ren 82 -> 56
c ren 83 -> 57
c ren 121 -> 58
c ren 137 -> 59
c ren 139 -> 60
c ren 145 -> 61
c ren 146 -> 62
c ren 150 -> 63
c ren 151 -> 64
c ren 158 -> 65
c ren 180 -> 66
c ren 186 -> 67
c ren 195 -> 68
c ren 208 -> 69
c ren 209 -> 70
c ren 217 -> 71
c ren 228 -> 72
c ren 230 -> 73
c ren 243 -> 74
c ren 252 -> 75
c ren 259 -> 76
c ren 263 -> 77
c ren 271 -> 78
c ren 281 -> 79
c ren 289 -> 80
c ren 290 -> 81
p cnf 81 610
a 12 13 14 15 16 17 18 19 20 21 22 23 24 25 26 27 28 29 30 31 32 33 34 35 36 37 38 39 40 41 42 43 44 45 46 47 48 0
d 1 12 13 14 15 16 17 18 19 20 21 22 23 24 25 26 27 28 29 30 31 32 33 34 35 0
d 2 12 13 14 15 16 17 18 19 20 21 22 23 24 25 26 27 28 29 30 31 32 33 34 35 0
d 3 12 13 14 15 16 17 18 19 20 21 22 23 24 25 26 27 28 29 30 31 32 33 34 35 0
d 4 12 13 14 15 16 17 18 19 20 21 22 23 24 25 26 27 28 29 30 31 32 33 34 35 0
d 5 12 13 14 15 16 17 18 19 20 21 22 23 24 25 26 27 28 29 30 31 32 33 34 35 0
d 6 12 13 14 15 16 17 18 19 20 21 22 23 24 25 26 27 28 29 30 31 32 33 34 35 0
d 7 12 13 14 15 16 17 18 19 20 21 22 23 24 25 26 27 28 29 30 31 32 33 34 35 0
d 8 12 13 14 15 16 17 18 19 20 21 22 23 24 25 26 27 28 29 30 31 32 33 34 35 0
d 9 12 13 14 15 16 17 18 19 20 21 22 23 24 25 26 27 28 29 30 31 32 33 34 35 0
d 10 12 13 14 15 16 17 18 19 20 21 22 23 24 25 26 27 28 29 30 31 32 33 34 35 0
d 11 12 13 14 15 16 17 18 19 20 21 22 23 24 25 26 27 28 29 30 31 32 33 34 35 0
d 49 23 24 25 26 27 28 29 30 31 32 33 34 35 0
d 50 36 37 38 39 40 41 42 43 44 45 46 47 48 0
e 51 52 53 54 55 56 57 58 59 60 61 62 63 64 65 66 67 68 69 70 71 72 73 74 75 76 77 78 79 80 81 0
23 24 25 -26 36 37 38 -39 51 0
-21 -23 -34 -46 -47 -49 50 59 -66 -74 -76 77 -78 -79 80 81 0
23 24 -25 -26 36 37 -38 -39 51 0
-23 -24 25 26 -36 -37 38 39 51 0
23 24 -25 26 36 37 -38 39 51 0
23 -24 25 26 36 -37 38 39 51 0
-23 -24 -25 26 -36 -37 -38 39 51 0
23 -24 -25 26 36 -37 -38 39 51 0
-22 -23 -33 -46 -47 -49 50 59 -66 -74 -76 77 -78 -79 80 81 0
-23 24 25 26 -36 37 38 39 51 0
-23 -24 -25 -26 -36 -37 -38 -39 51 0
23 -24 -25 -26 36 -37 -38 -39 51 0
-23 24 25 -26 -36 37 38 -39 51 0
33 34 46 47 -49 50 -59 -66 -74 -78 -79 80 81 0
21 -22 32 33 46 -47 -49 50 59 -66 -74 -75 77 -78 -79 80 81 0
-23 24 -25 26 -36 37 -38 39 51 0
21 46 -47 -49 50 59 -66 -74 76 -77 -78 -79 80 81 0
23 24 25 26 36 37 38 39 51 0
21 -22 46 47 -49 50 59 -66 -74 76 77 -78 -79 80 81 0
-23 -24 25 -26 -36 -37 38 -39 51 0
-23 -33 -34 -46 -47 -49 50 -66 -74 -76 77 -78 -79 80 81 0
23 -24 25 -26 36 -37 38 -39 51 0
-21 22 34 -46 47 -49 50 59 -66 -74 -76 -78 -79 80 81 0
21 -34 46 47 -49 50 59 -66 -74 76 77 -78 -79 80 81 0
-23 24 -25 -26 -36 37 -38 -39 51 0
-21 -46 47 -49 50 59 -66 -74 -76 -77 -78 -79 80 81 0
-22 33 34 46 47 -49 50 -66 -74 76 -78 -79 80 81 0
32 -34 46 47 -49 50 59 -66 -74 -75 76 77 -78 -79 80 81 0
21 22 34 46 -47 -49 50 59 -66 -74 76 -78 -79 80 81 0
-21 22 23 -46 47 -49 50 -66 -74 -78 -79 80 81 0
33 -34 46 47 -49 50 59 -66 -74 76 77 -78 -79 80 81 0
-21 -22 -46 -47 -49 50 59 -66 -74 -76 77 -78 -79 80 81 0
22 33 34 46 -47 -49 50 59 -66 -74 76 -78 -79 80 81 0
27 -28 40 -41 52 0
-33 -34 -46 -47 -49 50 -59 -66 -74 -78 -79 80 81 0
-27 -28 -40 -41 52 0
33 -34 46 -47 -49 50 -59 -66 -74 -78 -79 80 81 0
-27 28 -40 41 52 0
-22 33 46 47 -49 50 -66 -74 76 77 -78 -79 80 81 0
33 46 -47 -49 50 59 -66 -74 76 -77 -78 -79 80 81 0
27 28 40 41 52 0
-21 -33 -34 -46 47 -49 50 59 -66 -74 75 77 -78 -79 80 81 0
-33 -46 47 -49 50 59 -66 -74 -76 -77 -78 -79 80 81 0
-46 47 -49 50 59 -66 -74 75 -76 -77 -78 -79 80 81 0
22 -23 -33 34 -46 47 -49 50 -66 -74 -76 -78 -79 80 81 0
-21 -22 -33 -46 47 -49 50 59 -66 -74 75 77 -78 -79 80 81 0
22 32 34 46 -47 -49 50 59 -66 -74 -75 76 -78 -79 80 81 0
-34 -46 -47 -49 50 59 -66 -74 75 -76 77 -78 -79 80 81 0
-33 34 -46 47 -49 50 -59 -66 -74 -78 -79 80 81 0
-29 -42 53 0
-21 22 -33 34 -46 -47 -49 50 59 -66 -74 75 -78 -79 80 81 0
22 34 -46 47 -49 50 59 -66 -74 75 -76 -78 -79 80 81 0
20 22 34 46 -47 -49 50 59 -66 -74 -75 76 -78 -79 80 81 0
29 42 53 0
-22 -46 -47 -49 50 59 -66 -74 75 -76 77 -78 -79 80 81 0
-21 -33 -46 -47 -49 50 -66 -74 75 -77 -78 -79 80 81 0
-43 -54 0
30 -54 0
43 -55 0
-30 -55 0
21 22 23 46 47 -49 50 -66 -74 -78 -79 80 81 0
21 -22 23 46 -47 -49 50 -66 -74 -78 -79 80 81 0
20 21 33 46 47 -49 50 59 -66 -74 -75 -77 -78 -79 80 81 0
31 32 33 34 44 45 46 47 49 -50 -51 -52 -53 54 55 56 57 0
20 21 -22 33 46 -47 -49 50 59 -66 -74 -75 77 -78 -79 80 81 0
20 -22 46 47 -49 50 59 -66 -74 -75 76 77 -78 -79 80 81 0
20 46 -47 -49 50 59 -66 -74 -75 76 -77 -78 -79 80 81 0
24 -37 -59 62 0
31 -32 33 -34 44 -45 46 -47 -49 50 -51 -52 -53 54 55 56 57 0
14 26 -36 -38 39 60 61 62 63 65 66 0
-48 -56 0
35 -56 0
48 -57 0
-35 -57 0
-20 -23 -32 -34 -46 -47 -49 50 59 -66 -74 -76 77 -78 -79 80 81 0
31 32 33 -34 44 45 46 -47 49 -50 -51 -52 -53 54 55 56 57 0
-20 -22 -23 -32 -46 -47 -49 50 59 -66 -74 -76 77 -78 -79 80 81 0
31 32 -33 34 44 45 -46 47 49 -50 -51 -52 -53 54 55 56 57 0
-20 -21 -32 -33 -46 -47 -49 50 59 -66 -74 -77 -78 -79 80 81 0
31 32 -33 -34 44 45 -46 -47 49 -50 -51 -52 -53 54 55 56 57 0
-31 -32 33 -34 -44 -45 46 -47 49 -50 -51 -52 -53 54 55 56 57 0
31 -32 33 34 44 -45 46 47 49 -50 -51 -52 -53 54 55 56 57 0
31 -32 33 -34 44 -45 46 -47 49 -50 -51 -52 -53 54 55 56 57 0
-31 32 -33 34 -44 45 -46 47 49 -50 -51 -52 -53 54 55 56 57 0
-31 32 -33 -34 -44 45 -46 -47 49 -50 -51 -52 -53 54 55 56 57 0
31 -32 -33 34 44 -45 -46 47 49 -50 -51 -52 -53 54 55 56 57 0
-31 -32 33 34 -44 -45 46 47 49 -50 -51 -52 -53 54 55 56 57 0
-31 -32 -33 34 -44 -45 -46 47 49 -50 -51 -52 -53 54 55 56 57 0
-31 -32 -33 -34 -44 -45 -46 -47 49 -50 -51 -52 -53 54 55 56 57 0
31 -32 -33 -34 44 -45 -46 -47 49 -50 -51 -52 -53 54 55 56 57 0
20 21 -23 33 -34 46 -47 -49 50 -66 -74 -75 77 -78 -79 80 81 0
-31 32 33 34 -44 45 46 47 49 -50 -51 -52 -53 54 55 56 57 0
20 -34 46 47 -49 50 59 -66 -74 -75 76 77 -78 -79 80 81 0
-20 -32 -46 47 -49 50 59 -66 -74 -76 -77 -78 -79 80 81 0
-31 32 33 -34 -44 45 46 -47 49 -50 -51 -52 -53 54 55 56 57 0
-20 22 -23 -32 34 -46 47 -49 50 59 -66 -74 -76 -78 -79 80 81 0
-20 -21 -32 -33 -34 -46 47 -49 50 59 -66 -74 76 77 -78 -79 80 81 0
20 21 22 33 34 46 47 -49 50 -66 -74 -75 -78 -79 80 81 0
-20 -21 22 -32 -33 34 -46 -47 -49 50 59 -66 -74 76 -78 -79 80 81 0
-22 32 46 47 -49 50 59 -66 -74 -75 76 77 -78 -79 80 81 0
-20 -21 -22 -32 -33 -46 47 -49 50 59 -66 -74 76 77 -78 -79 80 81 0
21 32 33 46 47 -49 50 59 -66 -74 -75 -77 -78 -79 80 81 0
31 32 33 34 44 45 46 47 -49 50 -51 -52 -53 54 55 56 57 0
21 -23 32 33 -34 46 -47 -49 50 -66 -74 -75 77 -78 -79 80 81 0
31 32 33 -34 44 45 46 -47 -49 50 -51 -52 -53 54 55 56 57 0
14 -23 -26 -36 -38 -39 60 61 62 63 65 66 0
-15 -26 -60 64 -67 0
24 -60 0
26 -36 38 39 -59 61 62 -65 66 0
-26 -27 -60 64 -67 0
31 32 -33 -34 44 45 -46 -47 -49 50 -51 -52 -53 54 55 56 57 0
32 46 -47 -49 50 59 -66 -74 -75 76 -77 -78 -79 80 81 0
31 -32 33 34 44 -45 46 47 -49 50 -51 -52 -53 54 55 56 57 0
21 22 32 33 34 46 47 -49 50 -66 -74 -75 -78 -79 80 81 0
31 32 -33 34 44 45 -46 47 -49 50 -51 -52 -53 54 55 56 57 0
31 -32 -33 34 44 -45 -46 47 -49 50 -51 -52 -53 54 55 56 57 0
-14 -26 -36 38 -39 61 62 -63 -65 66 0
-14 23 -36 -38 -39 61 62 65 66 0
14 40 59 63 -64 67 68 0
-31 32 33 34 -44 45 46 47 -49 50 -51 -52 -53 54 55 56 57 0
-23 -24 -25 -26 -27 -28 -29 -30 -31 -32 -33 -34 -35 -49 0
1 2 -3 4 5 6 -58 0
-1 2 3 4 5 6 -58 0
1 2 -3 4 -5 -6 -58 0
1 -2 3 4 5 6 -58 0
-1 -2 -3 4 -5 6 58 0
-1 2 3 4 -5 -6 -58 0
1 2 -3 4 -5 6 58 0
1 -2 3 4 -5 6 58 0
-1 2 -3 4 -5 -6 58 0
-1 2 3 4 -5 6 58 0
1 -2 3 -4 5 -6 -58 0
-1 2 -3 4 5 -6 -58 0
1 2 -3 -4 -5 6 -58 0
-1 -2 -3 4 5 6 -58 0
-1 2 3 -4 -5 6 -58 0
-1 2 -3 4 5 6 58 0
1 2 3 -4 5 6 -58 0
-1 2 -3 -4 -5 -6 -58 0
-1 2 3 -4 5 -6 -58 0
1 2 3 4 -5 -6 58 0
1 2 3 -4 -5 6 58 0
1 -2 3 4 5 -6 58 0
1 2 3 -4 5 -6 58 0
-1 2 -3 -4 -5 6 58 0
1 2 3 4 5 -6 -58 0
1 2 -3 -4 5 6 58 0
1 2 3 4 -5 6 -58 0
-1 2 -3 -4 5 6 -58 0
1 2 -3 -4 -5 -6 58 0
-1 2 3 -4 5 6 58 0
-1 -2 -3 -4 5 6 58 0
-1 2 -3 4 -5 6 -58 0
1 -2 3 4 -5 -6 -58 0
1 2 -3 -4 5 -6 -58 0
-1 -2 -3 4 5 -6 58 0
-1 2 -3 -4 5 -6 58 0
1 2 3 4 5 6 58 0
1 -2 3 -4 -5 -6 58 0
-1 2 3 4 5 -6 58 0
1 2 3 -4 -5 -6 -58 0
1 -2 3 -4 5 6 58 0
-1 2 3 -4 -5 -6 58 0
-1 -2 -3 4 -5 -6 -58 0
1 -2 3 -4 -5 6 -58 0
-7 -8 9 -10 -11 -23 -35 58 59 0
7 8 9 -10 -11 -23 -35 58 59 0
1 -2 -3 -4 5 -6 58 0
-7 -8 -9 -10 11 -23 -35 58 59 0
-7 8 9 -10 -11 -23 -35 -58 59 0
7 -8 9 -10 11 -58 -59 0
7 8 -9 -10 11 -23 -35 58 59 0
-7 -8 9 -10 11 58 -59 0
-7 8 9 -10 11 -58 -59 0
7 -8 9 -10 -11 58 -59 0
7 8 9 -10 11 58 -59 0
-7 -8 -9 10 11 -23 -35 -58 59 0
-7 -8 9 10 11 -23 -35 58 59 0
-7 -8 -9 10 -11 -23 -35 58 59 0
7 -8 9 -10 -11 -23 -35 -58 59 0
7 8 -9 10 -11 -23 -35 58 59 0
7 -8 9 10 11 58 -59 0
-7 8 -9 -10 -11 -23 -35 58 59 0
7 -8 9 -10 11 -23 -35 58 59 0
7 -8 -9 10 11 -23 -35 58 59 0
-7 8 9 -10 -11 58 -59 0
-7 8 -9 -10 11 58 -59 0
-7 8 9 10 -11 -58 -59 0
-7 8 -9 10 -11 58 -59 0
7 -8 -9 -10 11 58 -59 0
7 -8 9 10 11 -23 -35 -58 59 0
-7 -8 -9 10 11 58 -59 0
-7 8 9 10 -11 -23 -35 58 59 0
7 -8 -9 -10 -11 -23 -35 58 59 0
-7 -8 -9 -10 -11 58 -59 0
7 8 -9 10 11 58 -59 0
7 -8 -9 10 11 -58 -59 0
7 -8 9 10 -11 -23 -35 58 59 0
-7 8 -9 -10 11 -23 -35 -58 59 0
-7 8 -9 10 11 -23 -35 58 59 0
7 -8 9 10 -11 -58 -59 0
7 -8 -9 10 -11 58 -59 0
-7 8 9 10 11 58 -59 0
-7 8 -9 -10 -11 -58 -59 0
7 8 9 10 -11 58 -59 0
-7 8 9 -10 11 -23 -35 58 59 0
-7 8 -9 10 11 -58 -59 0
7 -8 -9 -10 11 -23 -35 -58 59 0
-7 8 -9 10 -11 -23 -35 -58 59 0
-7 -8 -9 -10 -11 -23 -35 -58 59 0
-31 32 33 -34 -44 45 46 -47 -49 50 -51 -52 -53 54 55 56 57 0
7 8 -9 -10 -11 58 -59 0
-7 -8 -9 -10 11 -58 -59 0
12 24 -61 0
-12 -23 -24 60 0
7 8 9 10 11 -23 -35 58 59 0
12 -60 0
12 24 -37 62 0
-24 -59 -62 0
23 -60 0
-7 -8 9 10 -11 -23 -35 -58 59 0
7 -8 -9 -10 -11 -58 -59 0
-37 59 -60 62 0
-7 -8 9 10 11 -58 -59 0
7 -8 -9 10 -11 -23 -35 -58 59 0
-7 -8 -9 10 -11 -58 -59 0
-7 -8 9 10 -11 58 -59 0
7 8 -9 10 11 -23 -35 -58 59 0
-7 -8 9 -10 -11 -58 -59 0
-23 -24 37 60 61 0
7 8 -9 -10 11 -58 -59 0
-7 -8 9 -10 11 -23 -35 -58 59 0
-12 59 60 -62 0
7 8 -9 -10 -11 -23 -35 -58 59 0
-37 -61 0
-23 -24 60 -62 0
-24 37 -59 61 0
37 -62 0
-12 37 59 60 61 0
59 -60 -61 0
-62 -66 0
-26 -36 -38 -39 -59 61 62 65 66 0
7 8 9 -10 11 -23 -35 -58 59 0
7 8 -9 10 -11 -58 -59 0
7 8 9 10 -11 -23 -35 -58 59 0
25 -60 64 65 0
-13 -23 -25 63 0
1 -2 -3 -4 -5 -6 -58 0
13 -63 0
25 60 -64 65 0
-23 -25 -64 0
-13 -64 0
-22 -35 48 76 78 0
23 -59 0
59 60 -63 65 0
59 60 63 64 -65 0
1 -2 -3 4 -5 -6 58 0
1 -2 -3 -4 5 6 -58 0
59 -60 -64 -65 0
1 -2 -3 4 5 6 58 0
59 -60 -63 -65 0
59 -60 63 64 65 0
1 2 -3 4 5 -6 58 0
1 -2 -3 -4 -5 6 58 0
1 -2 -3 4 -5 6 -58 0
-1 -2 -3 -4 -5 6 -58 0
1 -2 -3 4 5 -6 -58 0
-1 -2 -3 -4 -5 -6 58 0
-1 -2 3 -4 -5 6 58 0
-1 -2 -3 -4 5 -6 -58 0
23 -63 0
-1 -2 3 -4 5 -6 58 0
7 8 9 10 11 -58 -59 0
59 60 -64 65 0
-1 -2 3 -4 5 6 -58 0
24 -59 -61 0
-1 -2 3 4 -5 6 -58 0
14 -26 -36 -38 39 59 61 62 -63 65 66 0
14 26 -36 38 39 61 62 63 -64 -65 66 0
13 23 64 0
14 15 27 -40 60 63 -68 0
-14 40 59 -60 64 -67 -68 0
-14 -15 -27 40 -63 -68 0
-14 -23 -26 -36 -38 39 59 61 62 63 -64 65 66 0
-14 -15 -27 -40 -60 64 68 0
23 -64 65 0
-15 -26 -63 -67 0
15 26 27 -40 60 63 -68 0
14 40 59 60 63 67 68 0
-14 -15 -23 -26 -27 -40 68 0
14 15 26 27 -40 -68 0
14 -40 59 60 63 67 -68 0
23 67 0
15 26 27 40 60 63 68 0
-14 -27 -63 -67 0
14 26 -40 59 67 -68 0
-14 -15 -23 -26 -27 40 -68 0
-14 -15 -63 -67 0
-14 -23 -26 40 59 -67 -68 0
14 15 26 27 40 68 0
15 26 60 63 67 0
14 26 40 59 67 68 0
14 15 60 63 67 0
-14 -26 -36 -38 -39 -60 61 62 64 65 66 0
-14 26 -36 -38 -39 59 61 62 63 -64 65 66 0
15 23 40 68 0
-14 26 -36 -38 39 -60 61 62 64 65 66 0
14 27 60 63 67 0
-14 -23 -26 -40 59 -67 68 0
14 26 27 67 0
-26 -40 59 -63 -67 68 0
-26 40 59 -63 -67 -68 0
14 26 -36 -38 39 61 62 63 -64 65 66 0
-26 -27 -63 -67 0
-14 -15 -27 -40 -63 68 0
-25 -59 -65 0
13 25 64 0
26 -40 59 60 63 67 -68 0
15 23 -40 -68 0
-14 -40 59 -63 -67 68 0
12 23 -61 0
-15 -26 -27 -40 -63 68 0
-15 -26 -27 40 -63 -68 0
7 8 9 -10 -11 -58 -59 0
25 -63 0
27 -40 -59 -68 0
26 27 60 63 67 0
14 26 -36 -38 -39 59 -60 62 64 65 66 0
27 -40 67 -68 0
25 -59 65 0
-23 -27 40 -67 -68 0
27 40 67 68 0
15 27 67 0
14 15 26 67 0
15 40 59 67 68 0
-14 -23 -26 -27 -67 0
14 23 -36 -38 39 61 62 65 66 0
12 23 -37 62 0
14 -26 -36 -38 39 59 -60 62 64 65 66 0
14 -23 -26 -36 -38 -39 61 62 63 -64 65 66 0
-27 -40 -59 68 0
15 -40 59 67 -68 0
-14 -15 -23 -26 -67 0
-15 -23 -27 -67 0
-15 -40 59 -67 68 0
-23 -27 -40 -67 68 0
26 40 59 60 63 67 68 0
-15 40 59 -67 -68 0
-26 -36 38 -39 -59 61 62 -65 66 0
27 40 -59 68 0
31 -32 -33 -34 44 -45 -46 -47 -49 50 -51 -52 -53 54 55 56 57 0
14 15 27 -40 63 -64 -68 0
-14 -15 -27 40 -60 64 -68 0
14 15 27 40 63 -64 68 0
-14 40 59 -63 -67 -68 0
35 -48 -77 78 0
16 42 -43 59 -67 -68 69 70 71 -72 74 0
16 28 42 -43 59 -68 69 70 71 -72 74 0
16 -28 59 67 -69 0
35 -59 0
-28 -59 -70 0
-16 -23 -28 59 -67 -69 0
-16 -23 -28 -41 59 -67 70 0
28 42 43 59 -67 -68 69 70 71 72 73 74 0
-28 -42 43 59 67 -68 69 70 -71 -72 74 0
16 29 -67 71 0
-16 -29 67 -71 0
28 -41 -59 70 0
16 28 29 71 0
-16 -23 -28 -29 -71 0
16 28 42 43 59 -68 69 70 71 72 73 74 0
-16 -42 43 59 67 -68 69 70 -71 -73 74 0
-16 -17 -28 -29 -42 -43 59 -68 69 70 -72 74 0
16 17 -67 71 0
-16 -17 -29 -42 43 59 67 -68 69 70 72 73 74 0
-16 -17 -23 -28 -71 0
-16 23 -70 0
-17 -28 -29 -42 -43 59 67 -68 69 70 -72 74 0
-16 -28 -42 43 59 -68 69 70 -71 -72 74 0
16 23 -41 70 0
16 -23 -28 41 -67 69 0
-41 -69 0
16 17 29 30 42 43 -67 -68 69 70 -73 74 0
-27 40 -59 -68 0
41 -70 0
-16 -17 -29 -42 -43 59 67 -68 69 70 -73 74 0
-16 -42 -43 59 67 -68 69 70 -71 72 73 74 0
-70 -74 0
-17 -42 -43 59 -68 69 70 -71 72 73 74 0
-17 -28 67 -71 0
28 29 -67 71 0
17 23 42 43 -68 69 70 -73 74 0
16 -23 -28 -67 -70 0
-16 -28 41 67 69 0
29 42 43 59 -68 69 70 71 72 73 74 0
-29 30 -42 43 -59 -68 69 70 74 0
-16 -23 -28 -42 43 59 -68 69 70 -71 -73 74 0
16 28 41 59 67 69 0
16 23 -69 0
17 28 29 30 42 43 -67 -68 69 70 -73 74 0
17 29 71 0
-29 -30 -42 -43 -59 -68 69 70 74 0
-28 -29 67 -71 0
-17 -23 -29 -71 0
-16 -42 43 59 67 -68 69 70 -71 -72 74 0
-23 -29 -42 43 59 -68 69 70 -71 -73 74 0
17 42 -43 59 -68 69 70 71 -72 74 0
17 28 -67 71 0
17 23 42 -43 -68 69 70 73 74 0
-16 23 41 69 0
-17 -42 43 59 -68 69 70 -71 -73 74 0
29 30 42 43 -68 69 70 71 73 74 0
35 48 -76 77 78 0
-16 -17 -23 -28 -29 -42 -43 59 -68 69 70 -73 74 0
22 34 35 48 78 0
16 17 28 29 30 42 43 -68 69 70 -73 74 0
29 42 -43 59 -68 69 70 71 -73 74 0
-29 -42 43 59 -68 69 70 -71 -72 74 0
16 17 28 71 0
-16 28 41 59 -67 69 0
-16 -23 -28 -42 -43 59 -68 69 70 -71 72 73 74 0
-16 -28 67 -70 0
16 17 29 42 43 59 -67 -68 69 70 -73 74 0
17 42 -43 59 -68 69 70 71 -73 74 0
29 42 -43 59 -68 69 70 71 -72 74 0
16 17 29 42 43 59 -67 -68 69 70 -72 74 0
-18 -23 -30 72 0
29 30 42 43 -59 -68 69 70 74 0
18 -72 0
30 -72 0
-23 -30 -73 0
28 -59 -69 0
-18 -73 0
18 30 73 0
19 72 -73 75 0
-19 -20 -32 -72 -81 0
19 -20 -23 -32 59 -71 72 -80 0
-19 -20 71 73 -75 0
19 20 32 72 -73 -80 0
-19 59 71 73 -75 -81 0
-16 -17 -23 -28 -29 -42 43 59 -68 69 70 72 73 74 0
-19 -20 -32 71 73 -81 0
23 -72 0
-19 -31 -44 71 73 79 0
-28 41 -59 69 0
-20 -31 71 73 -75 0
17 28 29 42 -43 59 -67 -68 69 70 72 73 74 0
-19 -32 71 73 -75 0
-20 -31 -32 71 73 -81 0
-31 59 71 73 -75 -81 0
-16 28 59 -67 -70 0
-14 -23 -26 -36 -38 39 59 60 61 62 65 66 0
-19 -23 -31 59 -75 -81 0
-19 31 44 -72 79 0
-20 -31 -32 -72 -81 0
-20 -23 31 -32 59 -71 72 -80 0
16 17 29 42 -43 59 -67 -68 69 70 72 73 74 0
-19 -31 -44 -72 79 0
19 31 -44 59 -72 79 0
-19 23 -44 79 0
-34 35 -48 76 78 0
-20 -23 -32 -33 -76 0
-20 32 59 -75 -81 0
20 23 -80 0
23 75 0
32 -59 -80 0
-21 75 -76 0
-31 -44 -59 79 0
23 -77 0
22 -77 0
-31 -32 33 34 -44 -45 46 47 -49 50 -51 -52 -53 54 55 56 57 0
-34 -35 48 76 78 0
20 33 -75 76 0
21 33 76 0
-31 -32 -33 -34 -44 -45 -46 -47 -49 50 -51 -52 -53 54 55 56 57 0
-7 8 9 10 11 -23 -35 -58 59 0
48 -59 78 0
19 -23 -31 -44 -71 72 79 0
19 23 44 79 0
-22 35 -48 76 78 0
19 -20 -23 -32 59 72 -73 -80 0
19 20 32 -71 72 -80 0
31 -71 72 75 0
19 -71 72 75 0
-20 -31 -72 -75 0
20 31 32 -71 72 -80 0
18 23 73 0
19 -20 -23 31 -32 59 -80 0
32 33 -75 76 0
-19 -20 -23 -31 -75 0
-19 59 -72 -75 -81 0
-31 -32 -72 -75 0
23 76 0
19 -31 44 59 -72 79 0
-19 -20 -23 -31 -32 -81 0
21 32 -75 76 0
-45 -80 0
-20 -21 -23 -32 -76 0
45 -81 0
32 75 -80 0
22 -23 34 -35 -48 59 78 0
-31 -32 -33 34 -44 -45 -46 47 -49 50 -51 -52 -53 54 55 56 57 0
-31 32 -33 -34 -44 45 -46 -47 -49 50 -51 -52 -53 54 55 56 57 0
-35 48 -77 78 0
34 -77 0
-19 -23 -31 44 59 -71 72 79 0
20 32 75 0
-20 23 -81 0
-22 -23 -34 77 0
19 31 44 -71 72 79 0
20 59 75 -80 0
-31 -32 33 -34 -44 -45 46 -47 -49 50 -51 -52 -53 54 55 56 57 0
20 21 -75 76 0
-19 -23 -31 -32 -75 0
-32 -59 -81 0
20 -23 -32 -75 -81 0
-33 75 -76 0
-19 -32 -72 -75 0
31 44 -59 79 0
-31 59 -72 -75 -81 0
-23 -35 -48 59 -76 77 78 0
-17 -42 43 59 -68 69 70 -71 -72 74 0
-31 32 -33 34 -44 45 -46 47 -49 50 -51 -52 -53 54 55 56 57 0
19 20 31 32 -80 0
-19 -20 -72 -75 0
-23 -29 -42 -43 59 -68 69 70 -71 72 73 74 0
-19 31 -44 59 72 -73 79 0
19 31 75 0
-31 -32 71 73 -75 0
-26 -40 59 -60 64 -67 68 0
31 72 -73 75 0
-26 40 59 -60 64 -67 -68 0
14 15 63 -64 67 0
-14 -40 59 -60 64 -67 68 0
14 -40 59 63 -64 67 -68 0
14 27 63 -64 67 0
-21 -23 -33 -76 0
19 -31 44 59 71 73 79 0
-19 31 44 71 73 79 0
-69 -74 0
19 31 -44 59 71 73 79 0
68 -74 0
17 42 43 59 -68 69 70 71 72 73 74 0
-19 31 -44 59 -71 72 79 0
19 -23 -31 -44 72 -73 79 0
-19 -23 -31 44 59 72 -73 79 0
17 28 29 42 43 59 -67 -68 69 70 -72 74 0
20 31 32 72 -73 -80 0
-20 -23 31 -32 59 72 -73 -80 0
-15 -26 -27 40 -60 64 -68 0
16 28 -41 -67 70 0
-15 -26 -27 -40 -60 64 68 0
14 15 27 40 60 63 68 0
-16 28 -41 67 70 0
19 31 44 72 -73 79 0
23 24 25 26 27 28 29 30 31 32 33 34 35 49 0
29 -30 42 -43 -59 -68 69 70 74 0
16 28 59 67 -70 0
28 42 -43 59 -67 -68 69 70 71 -72 74 0
-16 -17 -29 -42 -43 59 67 -68 69 70 -72 74 0
23 71 0
-16 -17 67 -71 0
-28 -42 -43 59 67 -68 69 70 -71 72 73 74 0
28 42 -43 59 -67 -68 69 70 71 -73 74 0
-28 -42 43 59 67 -68 69 70 -71 -73 74 0
-14 -27 -60 64 -67 0
16 42 43 59 -67 -68 69 70 71 72 73 74 0
-14 -15 -60 64 -67 0
-17 -28 -29 -42 -43 59 67 -68 69 70 -73 74 0
16 42 -43 59 -67 -68 69 70 71 -73 74 0
-17 -28 -29 -42 43 59 67 -68 69 70 72 73 74 0
16 -28 -41 59 67 70 0
16 17 28 29 42 43 59 -68 69 70 -73 74 0
16 28 42 -43 59 -68 69 70 71 -73 74 0
16 17 28 29 42 -43 59 -68 69 70 72 73 74 0
16 28 -67 -69 0
16 17 28 29 42 43 59 -68 69 70 -72 74 0
-16 28 67 -69 0
-14 26 -36 -38 -39 59 60 61 62 65 66 0
14 -26 -36 38 39 59 61 62 -63 -65 66 0
26 27 63 -64 67 0
15 26 63 -64 67 0
26 40 59 63 -64 67 68 0
26 -40 59 63 -64 67 -68 0
15 26 27 40 63 -64 68 0
15 26 27 -40 63 -64 -68 0
26 -36 -38 39 -59 61 62 65 66 0
-14 -26 -36 38 -39 -60 61 62 64 -65 66 0
14 -26 -36 38 39 59 -60 62 -65 66 0
23 48 78 0
14 26 -36 38 -39 59 -60 62 -65 66 0
-14 26 -36 38 39 -60 61 62 64 -65 66 0
14 23 -36 38 39 61 62 -65 66 0
-14 -23 -26 -36 38 39 59 60 61 62 63 -65 66 0
14 -23 -26 -36 38 -39 60 61 62 63 -65 66 0
-14 23 -36 38 -39 61 62 -65 66 0
14 26 -36 38 39 60 61 62 63 -65 66 0
-14 26 -36 38 -39 59 60 61 62 63 -65 66 0
17 28 29 42 43 59 -67 -68 69 70 -73 74 0
-61 -66 0
36 -66 0
-14 -26 -36 -38 -39 61 62 -63 65 66 0
-14 26 -36 38 39 61 62 -63 -65 66 0
14 26 -36 38 -39 59 61 62 -63 -65 66 0
-14 26 -36 -38 39 61 62 -63 65 66 0
14 26 -36 -38 -39 59 61 62 -63 65 66 0
-1 -2 3 -4 -5 -6 -58 0
-1 -2 3 4 -5 -6 58 0
-1 -2 3 4 5 -6 -58 0
-1 -2 3 4 5 6 58 0
